p cnf 386 460
-1 -4 -3 21 22 0
-1 -4 -3 21 -22 0
-1 -4 -3 -21 23 0
-1 -4 -3 -21 -23 0
-4 9 3 24 25 0
-4 9 3 24 -25 0
-4 9 3 -24 26 0
-4 9 3 -24 -26 0
20 -13 11 27 28 0
20 -13 11 27 -28 0
20 -13 11 -27 29 0
20 -13 11 -27 -29 0
1 14 -10 30 31 0
1 14 -10 30 -31 0
1 14 -10 -30 32 0
1 14 -10 -30 -32 0
18 6 -15 33 34 0
18 6 -15 33 -34 0
18 6 -15 -33 35 0
18 6 -15 -33 -35 0
4 -9 -15 36 37 0
4 -9 -15 36 -37 0
4 -9 -15 -36 38 0
4 -9 -15 -36 -38 0
10 3 13 39 40 0
10 3 13 39 -40 0
10 3 13 -39 41 0
10 3 13 -39 -41 0
20 19 6 42 43 0
20 19 6 42 -43 0
20 19 6 -42 44 0
20 19 6 -42 -44 0
4 13 -16 45 46 0
4 13 -16 45 -46 0
4 13 -16 -45 47 0
4 13 -16 -45 -47 0
2 15 7 48 49 0
2 15 7 48 -49 0
2 15 7 -48 50 0
2 15 7 -48 -50 0
6 9 -19 51 52 0
6 9 -19 51 -52 0
6 9 -19 -51 53 0
6 9 -19 -51 -53 0
15 -11 -7 54 55 0
15 -11 -7 54 -55 0
15 -11 -7 -54 56 0
15 -11 -7 -54 -56 0
-12 17 -14 57 58 0
-12 17 -14 57 -58 0
-12 17 -14 -57 59 0
-12 17 -14 -57 -59 0
-4 -10 -9 60 61 0
-4 -10 -9 60 -61 0
-4 -10 -9 -60 62 0
-4 -10 -9 -60 -62 0
-11 -16 -12 63 64 0
-11 -16 -12 63 -64 0
-11 -16 -12 -63 65 0
-11 -16 -12 -63 -65 0
-1 4 20 66 67 0
-1 4 20 66 -67 0
-1 4 20 -66 68 0
-1 4 20 -66 -68 0
17 -5 -18 69 70 0
17 -5 -18 69 -70 0
17 -5 -18 -69 71 0
17 -5 -18 -69 -71 0
-17 4 -12 72 73 0
-17 4 -12 72 -73 0
-17 4 -12 -72 74 0
-17 4 -12 -72 -74 0
-7 4 9 75 76 0
-7 4 9 75 -76 0
-7 4 9 -75 77 0
-7 4 9 -75 -77 0
12 -14 -19 78 79 0
12 -14 -19 78 -79 0
12 -14 -19 -78 80 0
12 -14 -19 -78 -80 0
-15 -12 20 81 82 0
-15 -12 20 81 -82 0
-15 -12 20 -81 83 0
-15 -12 20 -81 -83 0
-2 8 14 84 85 0
-2 8 14 84 -85 0
-2 8 14 -84 86 0
-2 8 14 -84 -86 0
15 -7 10 87 88 0
15 -7 10 87 -88 0
15 -7 10 -87 89 0
15 -7 10 -87 -89 0
-5 -3 -14 90 91 0
-5 -3 -14 90 -91 0
-5 -3 -14 -90 92 0
-5 -3 -14 -90 -92 0
-16 10 14 93 94 0
-16 10 14 93 -94 0
-16 10 14 -93 95 0
-16 10 14 -93 -95 0
7 13 -10 96 97 0
7 13 -10 96 -97 0
7 13 -10 -96 98 0
7 13 -10 -96 -98 0
3 11 -13 99 100 0
3 11 -13 99 -100 0
3 11 -13 -99 101 0
3 11 -13 -99 -101 0
17 7 -8 102 103 0
17 7 -8 102 -103 0
17 7 -8 -102 104 0
17 7 -8 -102 -104 0
9 7 11 105 106 0
9 7 11 105 -106 0
9 7 11 -105 107 0
9 7 11 -105 -107 0
-17 14 -16 108 109 0
-17 14 -16 108 -109 0
-17 14 -16 -108 110 0
-17 14 -16 -108 -110 0
1 -14 -9 111 112 0
1 -14 -9 111 -112 0
1 -14 -9 -111 113 0
1 -14 -9 -111 -113 0
8 -17 2 114 115 0
8 -17 2 114 -115 0
8 -17 2 -114 116 0
8 -17 2 -114 -116 0
19 -16 -10 117 118 0
19 -16 -10 117 -118 0
19 -16 -10 -117 119 0
19 -16 -10 -117 -119 0
-3 7 19 120 121 0
-3 7 19 120 -121 0
-3 7 19 -120 122 0
-3 7 19 -120 -122 0
-19 -5 17 123 124 0
-19 -5 17 123 -124 0
-19 -5 17 -123 125 0
-19 -5 17 -123 -125 0
-11 16 -17 126 127 0
-11 16 -17 126 -127 0
-11 16 -17 -126 128 0
-11 16 -17 -126 -128 0
-11 -13 7 129 130 0
-11 -13 7 129 -130 0
-11 -13 7 -129 131 0
-11 -13 7 -129 -131 0
15 -12 -1 132 133 0
15 -12 -1 132 -133 0
15 -12 -1 -132 134 0
15 -12 -1 -132 -134 0
-17 -20 -6 135 136 0
-17 -20 -6 135 -136 0
-17 -20 -6 -135 137 0
-17 -20 -6 -135 -137 0
18 -11 -15 138 139 0
18 -11 -15 138 -139 0
18 -11 -15 -138 140 0
18 -11 -15 -138 -140 0
-16 -9 14 141 142 0
-16 -9 14 141 -142 0
-16 -9 14 -141 143 0
-16 -9 14 -141 -143 0
-5 -6 -10 144 145 0
-5 -6 -10 144 -145 0
-5 -6 -10 -144 146 0
-5 -6 -10 -144 -146 0
-12 10 -16 147 148 0
-12 10 -16 147 -148 0
-12 10 -16 -147 149 0
-12 10 -16 -147 -149 0
12 -6 -19 150 151 0
12 -6 -19 150 -151 0
12 -6 -19 -150 152 0
12 -6 -19 -150 -152 0
-5 -8 10 153 154 0
-5 -8 10 153 -154 0
-5 -8 10 -153 155 0
-5 -8 10 -153 -155 0
17 8 12 156 157 0
17 8 12 156 -157 0
17 8 12 -156 158 0
17 8 12 -156 -158 0
13 7 11 159 160 0
13 7 11 159 -160 0
13 7 11 -159 161 0
13 7 11 -159 -161 0
-18 -16 19 162 163 0
-18 -16 19 162 -163 0
-18 -16 19 -162 164 0
-18 -16 19 -162 -164 0
7 3 11 165 166 0
7 3 11 165 -166 0
7 3 11 -165 167 0
7 3 11 -165 -167 0
-18 15 -8 168 169 0
-18 15 -8 168 -169 0
-18 15 -8 -168 170 0
-18 15 -8 -168 -170 0
11 -14 3 171 172 0
11 -14 3 171 -172 0
11 -14 3 -171 173 0
11 -14 3 -171 -173 0
-14 3 19 174 175 0
-14 3 19 174 -175 0
-14 3 19 -174 176 0
-14 3 19 -174 -176 0
14 -2 -7 177 178 0
14 -2 -7 177 -178 0
14 -2 -7 -177 179 0
14 -2 -7 -177 -179 0
-15 16 3 180 181 0
-15 16 3 180 -181 0
-15 16 3 -180 182 0
-15 16 3 -180 -182 0
18 -1 -5 183 184 0
18 -1 -5 183 -184 0
18 -1 -5 -183 185 0
18 -1 -5 -183 -185 0
17 5 19 186 187 0
17 5 19 186 -187 0
17 5 19 -186 188 0
17 5 19 -186 -188 0
-19 3 -6 189 190 0
-19 3 -6 189 -190 0
-19 3 -6 -189 191 0
-19 3 -6 -189 -191 0
-8 10 -1 192 193 0
-8 10 -1 192 -193 0
-8 10 -1 -192 194 0
-8 10 -1 -192 -194 0
10 19 15 195 196 0
10 19 15 195 -196 0
10 19 15 -195 197 0
10 19 15 -195 -197 0
-7 -5 -8 198 199 0
-7 -5 -8 198 -199 0
-7 -5 -8 -198 200 0
-7 -5 -8 -198 -200 0
9 4 3 201 202 0
9 4 3 201 -202 0
9 4 3 -201 203 0
9 4 3 -201 -203 0
15 7 -6 204 205 0
15 7 -6 204 -205 0
15 7 -6 -204 206 0
15 7 -6 -204 -206 0
-14 9 4 207 208 0
-14 9 4 207 -208 0
-14 9 4 -207 209 0
-14 9 4 -207 -209 0
7 13 5 210 211 0
7 13 5 210 -211 0
7 13 5 -210 212 0
7 13 5 -210 -212 0
-5 10 -13 213 214 0
-5 10 -13 213 -214 0
-5 10 -13 -213 215 0
-5 10 -13 -213 -215 0
-11 -10 15 216 217 0
-11 -10 15 216 -217 0
-11 -10 15 -216 218 0
-11 -10 15 -216 -218 0
17 -12 -10 219 220 0
17 -12 -10 219 -220 0
17 -12 -10 -219 221 0
17 -12 -10 -219 -221 0
-16 -6 20 222 223 0
-16 -6 20 222 -223 0
-16 -6 20 -222 224 0
-16 -6 20 -222 -224 0
6 7 -17 225 226 0
6 7 -17 225 -226 0
6 7 -17 -225 227 0
6 7 -17 -225 -227 0
18 13 8 228 229 0
18 13 8 228 -229 0
18 13 8 -228 230 0
18 13 8 -228 -230 0
-1 16 -19 231 232 0
-1 16 -19 231 -232 0
-1 16 -19 -231 233 0
-1 16 -19 -231 -233 0
19 7 -8 234 235 0
19 7 -8 234 -235 0
19 7 -8 -234 236 0
19 7 -8 -234 -236 0
-19 4 5 237 238 0
-19 4 5 237 -238 0
-19 4 5 -237 239 0
-19 4 5 -237 -239 0
-1 -8 -12 240 241 0
-1 -8 -12 240 -241 0
-1 -8 -12 -240 242 0
-1 -8 -12 -240 -242 0
16 15 -12 243 244 0
16 15 -12 243 -244 0
16 15 -12 -243 245 0
16 15 -12 -243 -245 0
12 6 13 246 247 0
12 6 13 246 -247 0
12 6 13 -246 248 0
12 6 13 -246 -248 0
-6 19 -8 249 250 0
-6 19 -8 249 -250 0
-6 19 -8 -249 251 0
-6 19 -8 -249 -251 0
-13 6 20 252 253 0
-13 6 20 252 -253 0
-13 6 20 -252 254 0
-13 6 20 -252 -254 0
-2 5 11 255 256 0
-2 5 11 255 -256 0
-2 5 11 -255 257 0
-2 5 11 -255 -257 0
12 -17 3 258 259 0
12 -17 3 258 -259 0
12 -17 3 -258 260 0
12 -17 3 -258 -260 0
-19 -10 -13 261 262 0
-19 -10 -13 261 -262 0
-19 -10 -13 -261 263 0
-19 -10 -13 -261 -263 0
-13 -5 -1 264 265 0
-13 -5 -1 264 -265 0
-13 -5 -1 -264 266 0
-13 -5 -1 -264 -266 0
10 5 -17 267 268 0
10 5 -17 267 -268 0
10 5 -17 -267 269 0
10 5 -17 -267 -269 0
-8 -13 -10 270 271 0
-8 -13 -10 270 -271 0
-8 -13 -10 -270 272 0
-8 -13 -10 -270 -272 0
-11 10 1 273 274 0
-11 10 1 273 -274 0
-11 10 1 -273 275 0
-11 10 1 -273 -275 0
13 -18 -1 276 277 0
13 -18 -1 276 -277 0
13 -18 -1 -276 278 0
13 -18 -1 -276 -278 0
-17 -2 7 279 280 0
-17 -2 7 279 -280 0
-17 -2 7 -279 281 0
-17 -2 7 -279 -281 0
-15 -10 -11 282 283 0
-15 -10 -11 282 -283 0
-15 -10 -11 -282 284 0
-15 -10 -11 -282 -284 0
-10 3 12 285 286 0
-10 3 12 285 -286 0
-10 3 12 -285 287 0
-10 3 12 -285 -287 0
-17 14 15 288 289 0
-17 14 15 288 -289 0
-17 14 15 -288 290 0
-17 14 15 -288 -290 0
-6 20 -4 291 292 0
-6 20 -4 291 -292 0
-6 20 -4 -291 293 0
-6 20 -4 -291 -293 0
294 295 297 301 309 0
294 295 297 301 -309 0
294 295 297 -301 310 0
294 295 297 -301 -310 0
294 295 -297 302 311 0
294 295 -297 302 -311 0
294 295 -297 -302 312 0
294 295 -297 -302 -312 0
294 -295 298 303 313 0
294 -295 298 303 -313 0
294 -295 298 -303 314 0
294 -295 298 -303 -314 0
294 -295 -298 304 315 0
294 -295 -298 304 -315 0
294 -295 -298 -304 316 0
294 -295 -298 -304 -316 0
-294 296 299 305 317 0
-294 296 299 305 -317 0
-294 296 299 -305 318 0
-294 296 299 -305 -318 0
-294 296 -299 306 319 0
-294 296 -299 306 -319 0
-294 296 -299 -306 320 0
-294 296 -299 -306 -320 0
-294 -296 300 307 321 0
-294 -296 300 307 -321 0
-294 -296 300 -307 322 0
-294 -296 300 -307 -322 0
-294 -296 -300 308 323 0
-294 -296 -300 308 -323 0
-294 -296 -300 -308 324 0
-294 -296 -300 -308 -324 0
325 326 328 332 340 0
325 326 328 332 -340 0
325 326 328 -332 341 0
325 326 328 -332 -341 0
325 326 -328 333 342 0
325 326 -328 333 -342 0
325 326 -328 -333 343 0
325 326 -328 -333 -343 0
325 -326 329 334 344 0
325 -326 329 334 -344 0
325 -326 329 -334 345 0
325 -326 329 -334 -345 0
325 -326 -329 335 346 0
325 -326 -329 335 -346 0
325 -326 -329 -335 347 0
325 -326 -329 -335 -347 0
-325 327 330 336 348 0
-325 327 330 336 -348 0
-325 327 330 -336 349 0
-325 327 330 -336 -349 0
-325 327 -330 337 350 0
-325 327 -330 337 -350 0
-325 327 -330 -337 351 0
-325 327 -330 -337 -351 0
-325 -327 331 338 352 0
-325 -327 331 338 -352 0
-325 -327 331 -338 353 0
-325 -327 331 -338 -353 0
-325 -327 -331 339 354 0
-325 -327 -331 339 -354 0
-325 -327 -331 -339 355 0
-325 -327 -331 -339 -355 0
356 357 359 363 371 0
356 357 359 363 -371 0
356 357 359 -363 372 0
356 357 359 -363 -372 0
356 357 -359 364 373 0
356 357 -359 364 -373 0
356 357 -359 -364 374 0
356 357 -359 -364 -374 0
356 -357 360 365 375 0
356 -357 360 365 -375 0
356 -357 360 -365 376 0
356 -357 360 -365 -376 0
356 -357 -360 366 377 0
356 -357 -360 366 -377 0
356 -357 -360 -366 378 0
356 -357 -360 -366 -378 0
-356 358 361 367 379 0
-356 358 361 367 -379 0
-356 358 361 -367 380 0
-356 358 361 -367 -380 0
-356 358 -361 368 381 0
-356 358 -361 368 -381 0
-356 358 -361 -368 382 0
-356 358 -361 -368 -382 0
-356 -358 362 369 383 0
-356 -358 362 369 -383 0
-356 -358 362 -369 384 0
-356 -358 362 -369 -384 0
-356 -358 -362 370 385 0
-356 -358 -362 370 -385 0
-356 -358 -362 -370 386 0
-356 -358 -362 -370 -386 0

